benchmarks_CP/INST_49x49/40/inst49x49_40_8.dzn
S=7;
start=[|
-1,	-1,	-1,	40,	-1,	-1,	-1,	-1,	24,	-1,	8,	-1,	-1,	-1,	-1,	28,	20,	-1,	7,	-1,	-1,	47,	46,	-1,	38,	-1,	30,	21,	-1,	-1,	-1,	29,	1,	37,	19,	32,	49,	6,	44,	-1,	-1,	-1,	15,	36,	2,	-1,	-1,	14,	-1|
-1,	-1,	48,	-1,	-1,	-1,	-1,	-1,	33,	37,	-1,	12,	-1,	46,	-1,	-1,	-1,	-1,	40,	-1,	-1,	-1,	-1,	20,	-1,	13,	2,	-1,	16,	36,	27,	8,	28,	-1,	-1,	-1,	1,	15,	-1,	-1,	-1,	-1,	7,	-1,	-1,	-1,	44,	-1,	-1|
-1,	43,	30,	-1,	24,	28,	44,	-1,	-1,	23,	-1,	-1,	7,	11,	42,	15,	46,	-1,	-1,	-1,	-1,	-1,	-1,	31,	-1,	-1,	22,	-1,	14,	-1,	-1,	34,	-1,	9,	40,	41,	-1,	-1,	-1,	20,	36,	-1,	-1,	27,	10,	4,	-1,	45,	26|
1,	-1,	-1,	35,	21,	23,	20,	-1,	-1,	-1,	4,	-1,	-1,	-1,	11,	-1,	29,	-1,	10,	-1,	36,	-1,	-1,	-1,	8,	-1,	3,	9,	39,	-1,	25,	-1,	-1,	48,	44,	47,	-1,	33,	-1,	-1,	-1,	30,	-1,	38,	-1,	46,	-1,	-1,	-1|
-1,	-1,	36,	46,	-1,	-1,	-1,	-1,	-1,	-1,	40,	-1,	27,	31,	16,	-1,	35,	-1,	34,	-1,	-1,	-1,	-1,	-1,	-1,	-1,	18,	45,	2,	-1,	-1,	-1,	-1,	-1,	6,	-1,	-1,	9,	-1,	-1,	-1,	-1,	48,	19,	-1,	-1,	-1,	-1,	17|
-1,	-1,	-1,	6,	-1,	16,	-1,	41,	-1,	5,	47,	-1,	45,	28,	4,	-1,	-1,	44,	-1,	-1,	-1,	-1,	-1,	-1,	15,	-1,	-1,	36,	-1,	49,	11,	23,	-1,	-1,	-1,	-1,	-1,	-1,	26,	27,	-1,	-1,	-1,	-1,	-1,	30,	-1,	-1,	24|
-1,	-1,	-1,	-1,	-1,	9,	-1,	-1,	36,	-1,	39,	-1,	-1,	49,	-1,	-1,	-1,	-1,	23,	2,	-1,	-1,	44,	-1,	-1,	-1,	-1,	43,	-1,	-1,	-1,	-1,	-1,	24,	31,	-1,	-1,	-1,	29,	-1,	-1,	-1,	-1,	-1,	37,	-1,	6,	-1,	-1|
-1,	-1,	12,	-1,	31,	-1,	4,	-1,	-1,	-1,	45,	39,	37,	32,	-1,	8,	-1,	-1,	-1,	-1,	-1,	-1,	14,	-1,	22,	5,	-1,	-1,	-1,	-1,	-1,	-1,	25,	-1,	-1,	1,	29,	-1,	-1,	-1,	-1,	-1,	19,	21,	-1,	-1,	40,	-1,	-1|
47,	5,	37,	-1,	-1,	17,	-1,	-1,	-1,	-1,	-1,	-1,	35,	22,	-1,	45,	-1,	-1,	-1,	-1,	31,	12,	-1,	-1,	-1,	-1,	-1,	19,	-1,	18,	-1,	-1,	-1,	-1,	15,	-1,	41,	34,	38,	48,	43,	-1,	-1,	4,	-1,	-1,	-1,	-1,	-1|
49,	41,	-1,	-1,	-1,	-1,	-1,	48,	-1,	30,	-1,	16,	-1,	-1,	-1,	-1,	2,	-1,	-1,	5,	42,	-1,	-1,	17,	-1,	-1,	-1,	-1,	26,	44,	-1,	-1,	-1,	28,	-1,	-1,	-1,	-1,	-1,	14,	33,	35,	43,	-1,	32,	27,	45,	-1,	18|
22,	-1,	-1,	10,	-1,	11,	-1,	34,	-1,	-1,	7,	27,	4,	-1,	-1,	-1,	33,	-1,	-1,	1,	43,	-1,	23,	44,	-1,	38,	-1,	8,	-1,	-1,	35,	17,	-1,	31,	-1,	-1,	-1,	26,	2,	-1,	-1,	-1,	-1,	12,	-1,	15,	-1,	-1,	-1|
13,	15,	-1,	-1,	-1,	7,	35,	-1,	-1,	9,	-1,	40,	25,	-1,	-1,	14,	-1,	23,	-1,	17,	12,	-1,	-1,	-1,	-1,	-1,	-1,	28,	-1,	-1,	-1,	-1,	-1,	49,	1,	4,	16,	11,	32,	6,	5,	37,	-1,	33,	-1,	-1,	-1,	10,	-1|
-1,	38,	-1,	43,	-1,	-1,	27,	13,	-1,	-1,	-1,	-1,	42,	-1,	9,	-1,	-1,	-1,	18,	-1,	26,	49,	16,	-1,	-1,	33,	29,	-1,	-1,	-1,	-1,	12,	-1,	-1,	10,	-1,	25,	-1,	28,	-1,	23,	-1,	-1,	-1,	-1,	-1,	11,	22,	-1|
-1,	23,	-1,	48,	2,	42,	-1,	-1,	15,	28,	-1,	-1,	41,	-1,	-1,	40,	-1,	-1,	16,	-1,	10,	-1,	-1,	-1,	-1,	35,	-1,	47,	22,	6,	46,	-1,	-1,	-1,	-1,	7,	-1,	30,	-1,	-1,	-1,	-1,	-1,	9,	14,	-1,	-1,	-1,	13|
-1,	-1,	-1,	-1,	15,	-1,	42,	27,	34,	2,	-1,	-1,	-1,	-1,	-1,	-1,	21,	-1,	1,	-1,	-1,	-1,	39,	6,	-1,	20,	36,	-1,	46,	23,	-1,	-1,	41,	19,	7,	-1,	12,	47,	-1,	-1,	-1,	26,	4,	-1,	-1,	-1,	-1,	-1,	-1|
16,	24,	-1,	-1,	-1,	18,	49,	9,	-1,	-1,	6,	-1,	-1,	21,	-1,	-1,	47,	-1,	30,	-1,	-1,	-1,	-1,	43,	-1,	-1,	-1,	-1,	-1,	1,	36,	-1,	14,	-1,	-1,	-1,	22,	-1,	8,	-1,	-1,	13,	-1,	-1,	-1,	-1,	39,	-1,	46|
27,	-1,	40,	-1,	30,	-1,	6,	-1,	13,	-1,	-1,	14,	-1,	-1,	-1,	-1,	-1,	42,	-1,	15,	19,	22,	-1,	-1,	32,	-1,	-1,	-1,	-1,	21,	-1,	35,	49,	4,	28,	-1,	-1,	39,	-1,	33,	25,	10,	5,	1,	20,	29,	24,	9,	-1|
-1,	-1,	34,	38,	-1,	-1,	10,	5,	-1,	-1,	-1,	-1,	-1,	-1,	36,	-1,	39,	9,	-1,	-1,	27,	35,	-1,	-1,	49,	-1,	12,	-1,	13,	47,	-1,	6,	32,	-1,	-1,	-1,	24,	-1,	-1,	-1,	-1,	15,	-1,	37,	-1,	14,	-1,	-1,	-1|
-1,	-1,	-1,	-1,	9,	-1,	-1,	-1,	41,	32,	-1,	-1,	24,	-1,	-1,	-1,	3,	14,	28,	-1,	-1,	38,	-1,	-1,	-1,	-1,	-1,	-1,	-1,	-1,	5,	-1,	8,	2,	12,	19,	40,	-1,	-1,	-1,	-1,	-1,	-1,	-1,	22,	44,	-1,	-1,	-1|
-1,	-1,	-1,	-1,	-1,	-1,	-1,	7,	-1,	-1,	43,	-1,	20,	-1,	-1,	-1,	-1,	-1,	6,	-1,	-1,	-1,	-1,	-1,	34,	-1,	46,	-1,	-1,	-1,	24,	27,	-1,	-1,	-1,	17,	-1,	14,	-1,	-1,	49,	28,	-1,	32,	36,	-1,	-1,	-1,	15|
-1,	-1,	-1,	-1,	46,	-1,	-1,	-1,	-1,	19,	-1,	28,	1,	16,	12,	-1,	-1,	43,	22,	41,	-1,	30,	-1,	10,	4,	-1,	33,	-1,	-1,	-1,	38,	-1,	-1,	-1,	45,	2,	23,	-1,	-1,	-1,	-1,	-1,	-1,	-1,	8,	49,	-1,	47,	-1|
-1,	27,	17,	-1,	-1,	5,	14,	-1,	-1,	-1,	-1,	30,	-1,	-1,	-1,	-1,	41,	-1,	-1,	-1,	35,	-1,	-1,	13,	-1,	-1,	-1,	25,	-1,	-1,	29,	19,	-1,	-1,	39,	-1,	-1,	-1,	-1,	-1,	-1,	-1,	31,	28,	-1,	-1,	1,	44,	47|
-1,	-1,	-1,	-1,	19,	-1,	-1,	-1,	-1,	-1,	-1,	-1,	43,	-1,	2,	-1,	-1,	-1,	24,	30,	-1,	11,	-1,	14,	-1,	22,	-1,	-1,	-1,	35,	-1,	-1,	-1,	-1,	8,	-1,	-1,	18,	-1,	16,	38,	-1,	-1,	46,	-1,	-1,	-1,	-1,	25|
35,	-1,	-1,	13,	45,	-1,	-1,	-1,	39,	1,	-1,	-1,	-1,	-1,	-1,	22,	36,	33,	12,	48,	-1,	34,	-1,	38,	-1,	8,	37,	15,	-1,	-1,	6,	-1,	31,	-1,	4,	30,	-1,	42,	40,	10,	-1,	-1,	49,	-1,	-1,	-1,	19,	-1,	27|
8,	-1,	38,	-1,	-1,	2,	-1,	16,	47,	25,	-1,	35,	-1,	42,	31,	27,	-1,	-1,	-1,	3,	-1,	41,	7,	-1,	26,	-1,	-1,	39,	-1,	40,	-1,	-1,	-1,	18,	48,	-1,	-1,	-1,	-1,	5,	-1,	14,	-1,	-1,	23,	-1,	-1,	-1,	-1|
-1,	10,	16,	-1,	40,	46,	-1,	-1,	17,	-1,	-1,	-1,	-1,	-1,	-1,	-1,	-1,	19,	-1,	-1,	-1,	-1,	-1,	-1,	31,	-1,	-1,	-1,	33,	-1,	-1,	-1,	-1,	11,	23,	29,	35,	2,	13,	-1,	-1,	-1,	-1,	-1,	-1,	-1,	42,	-1,	3|
6,	42,	20,	-1,	48,	41,	-1,	12,	-1,	-1,	-1,	-1,	2,	-1,	39,	1,	10,	45,	29,	23,	40,	-1,	3,	-1,	18,	-1,	28,	33,	17,	-1,	-1,	-1,	-1,	-1,	5,	26,	47,	-1,	-1,	-1,	-1,	46,	-1,	-1,	-1,	-1,	-1,	15,	-1|
-1,	-1,	-1,	30,	-1,	-1,	39,	29,	45,	31,	-1,	-1,	-1,	-1,	34,	4,	16,	-1,	-1,	42,	-1,	10,	-1,	46,	-1,	-1,	23,	40,	-1,	38,	2,	32,	-1,	14,	-1,	-1,	-1,	-1,	-1,	-1,	19,	-1,	-1,	18,	-1,	-1,	-1,	26,	35|
-1,	-1,	19,	-1,	-1,	-1,	38,	-1,	-1,	7,	32,	36,	29,	30,	8,	-1,	9,	-1,	-1,	-1,	-1,	-1,	-1,	-1,	-1,	23,	34,	12,	6,	-1,	48,	-1,	24,	-1,	-1,	37,	-1,	-1,	-1,	-1,	-1,	-1,	10,	49,	47,	-1,	-1,	1,	-1|
30,	-1,	-1,	24,	-1,	-1,	3,	-1,	-1,	-1,	-1,	1,	-1,	-1,	-1,	-1,	6,	4,	-1,	45,	-1,	-1,	22,	-1,	40,	-1,	42,	-1,	23,	-1,	31,	21,	-1,	-1,	-1,	-1,	9,	-1,	-1,	-1,	-1,	16,	41,	29,	11,	8,	-1,	-1,	12|
7,	-1,	43,	37,	5,	45,	29,	-1,	-1,	13,	2,	48,	-1,	23,	24,	-1,	-1,	1,	11,	46,	-1,	33,	-1,	-1,	-1,	10,	35,	-1,	38,	-1,	-1,	9,	12,	-1,	-1,	-1,	-1,	3,	-1,	-1,	21,	22,	-1,	-1,	-1,	-1,	-1,	19,	-1|
32,	-1,	-1,	1,	-1,	-1,	13,	-1,	11,	-1,	-1,	6,	-1,	47,	19,	-1,	-1,	-1,	-1,	39,	-1,	-1,	26,	-1,	29,	-1,	-1,	-1,	-1,	43,	-1,	45,	10,	-1,	22,	-1,	27,	-1,	49,	40,	12,	-1,	37,	-1,	44,	23,	-1,	35,	-1|
25,	-1,	-1,	36,	-1,	40,	18,	-1,	-1,	-1,	12,	37,	31,	-1,	-1,	21,	-1,	17,	-1,	20,	-1,	43,	-1,	-1,	45,	4,	15,	-1,	-1,	-1,	8,	13,	3,	-1,	29,	-1,	-1,	24,	-1,	23,	2,	-1,	-1,	-1,	-1,	39,	-1,	16,	-1|
-1,	-1,	39,	27,	-1,	-1,	-1,	-1,	9,	-1,	-1,	-1,	-1,	40,	-1,	-1,	32,	16,	-1,	-1,	23,	31,	-1,	-1,	-1,	-1,	-1,	-1,	-1,	-1,	19,	-1,	44,	-1,	37,	42,	-1,	-1,	-1,	13,	1,	-1,	-1,	-1,	5,	-1,	-1,	-1,	-1|
-1,	47,	11,	8,	10,	44,	-1,	-1,	-1,	15,	16,	-1,	28,	-1,	38,	48,	12,	40,	-1,	29,	-1,	-1,	-1,	24,	-1,	14,	-1,	-1,	-1,	7,	1,	-1,	-1,	35,	-1,	39,	-1,	-1,	-1,	-1,	-1,	-1,	13,	-1,	-1,	42,	9,	4,	-1|
24,	33,	21,	23,	16,	-1,	-1,	49,	-1,	-1,	-1,	-1,	-1,	-1,	35,	-1,	-1,	39,	17,	-1,	-1,	-1,	-1,	-1,	-1,	3,	-1,	13,	-1,	31,	22,	38,	-1,	-1,	-1,	-1,	-1,	-1,	15,	30,	42,	25,	-1,	-1,	19,	-1,	47,	-1,	-1|
48,	-1,	-1,	-1,	-1,	36,	-1,	17,	-1,	-1,	42,	25,	-1,	-1,	-1,	-1,	-1,	34,	14,	24,	-1,	29,	30,	-1,	10,	-1,	9,	-1,	7,	-1,	40,	-1,	35,	16,	-1,	-1,	-1,	-1,	-1,	-1,	47,	3,	-1,	-1,	-1,	-1,	-1,	-1,	-1|
-1,	-1,	41,	-1,	4,	-1,	-1,	-1,	6,	45,	-1,	-1,	15,	-1,	-1,	-1,	48,	-1,	25,	-1,	-1,	-1,	-1,	-1,	16,	47,	14,	-1,	49,	-1,	-1,	-1,	-1,	-1,	13,	28,	44,	-1,	-1,	-1,	-1,	-1,	2,	40,	-1,	33,	46,	-1,	36|
42,	-1,	-1,	-1,	-1,	14,	-1,	30,	40,	16,	-1,	18,	-1,	-1,	-1,	-1,	-1,	-1,	-1,	-1,	-1,	-1,	-1,	15,	-1,	-1,	-1,	-1,	12,	-1,	33,	41,	20,	-1,	9,	-1,	11,	-1,	-1,	-1,	-1,	-1,	-1,	-1,	26,	48,	-1,	-1,	-1|
-1,	-1,	35,	-1,	-1,	25,	-1,	-1,	5,	-1,	-1,	-1,	33,	4,	37,	-1,	-1,	13,	-1,	-1,	-1,	2,	24,	1,	-1,	18,	-1,	-1,	-1,	-1,	-1,	-1,	30,	-1,	-1,	16,	-1,	36,	10,	-1,	-1,	40,	-1,	-1,	12,	-1,	21,	-1,	-1|
40,	34,	10,	47,	-1,	29,	37,	23,	-1,	3,	36,	9,	8,	1,	46,	-1,	44,	15,	-1,	-1,	-1,	-1,	33,	-1,	7,	43,	48,	-1,	-1,	32,	-1,	-1,	-1,	6,	-1,	-1,	13,	-1,	-1,	-1,	18,	17,	-1,	-1,	-1,	-1,	-1,	-1,	11|
-1,	-1,	-1,	9,	-1,	13,	-1,	-1,	10,	29,	-1,	20,	-1,	12,	-1,	-1,	-1,	-1,	4,	-1,	-1,	-1,	38,	-1,	-1,	25,	-1,	11,	44,	24,	-1,	5,	-1,	-1,	-1,	48,	-1,	19,	-1,	-1,	-1,	33,	-1,	34,	-1,	1,	-1,	-1,	8|
43,	-1,	-1,	12,	-1,	-1,	-1,	-1,	-1,	-1,	-1,	-1,	-1,	-1,	-1,	-1,	45,	-1,	48,	16,	-1,	15,	-1,	-1,	2,	-1,	-1,	35,	-1,	4,	-1,	-1,	38,	-1,	32,	-1,	-1,	17,	22,	-1,	-1,	-1,	-1,	13,	-1,	-1,	23,	11,	-1|
45,	19,	44,	42,	-1,	15,	24,	-1,	32,	11,	27,	-1,	-1,	29,	-1,	-1,	-1,	-1,	-1,	-1,	-1,	-1,	-1,	-1,	3,	-1,	-1,	26,	21,	2,	-1,	28,	9,	22,	-1,	-1,	38,	49,	-1,	-1,	-1,	-1,	-1,	8,	-1,	-1,	16,	-1,	30|
37,	49,	-1,	41,	29,	-1,	-1,	-1,	-1,	24,	-1,	-1,	-1,	-1,	32,	-1,	18,	8,	-1,	-1,	-1,	17,	12,	4,	28,	-1,	-1,	-1,	27,	-1,	39,	-1,	-1,	-1,	30,	-1,	-1,	40,	-1,	46,	15,	-1,	-1,	-1,	34,	20,	-1,	6,	-1|
11,	46,	-1,	-1,	-1,	30,	-1,	-1,	-1,	-1,	-1,	15,	-1,	-1,	28,	-1,	-1,	26,	-1,	27,	17,	23,	34,	45,	-1,	-1,	5,	41,	-1,	-1,	-1,	-1,	48,	-1,	-1,	-1,	-1,	-1,	-1,	-1,	10,	4,	33,	-1,	39,	-1,	29,	-1,	-1|
-1,	48,	-1,	3,	-1,	-1,	8,	-1,	16,	12,	-1,	-1,	-1,	35,	-1,	-1,	-1,	-1,	-1,	31,	24,	-1,	29,	11,	14,	36,	-1,	22,	19,	-1,	-1,	-1,	6,	-1,	47,	-1,	-1,	-1,	33,	39,	-1,	-1,	-1,	2,	45,	-1,	17,	32,	-1|
-1,	-1,	27,	-1,	25,	-1,	-1,	-1,	-1,	-1,	-1,	-1,	9,	-1,	47,	-1,	38,	-1,	-1,	-1,	-1,	-1,	-1,	-1,	-1,	-1,	6,	-1,	-1,	-1,	-1,	-1,	-1,	-1,	24,	-1,	5,	29,	14,	-1,	-1,	-1,	-1,	-1,	15,	-1,	-1,	-1,	-1|
21,	-1,	18,	-1,	7,	6,	1,	26,	-1,	-1,	48,	-1,	-1,	-1,	-1,	-1,	34,	-1,	-1,	-1,	-1,	19,	42,	27,	47,	44,	-1,	38,	29,	-1,	17,	-1,	16,	-1,	-1,	-1,	-1,	31,	23,	-1,	-1,	-1,	-1,	-1,	-1,	3,	14,	24,	-1|];
