sudoku-ls/benchmarks_LEQ/INST_49x49/40/inst49x49_40_8.txt
7
1
-1	4	42	-1	-1	-1	-1	-1	-1	-1	-1	-1	13	34	45	-1	-1	3	-1	-1	-1	47	-1	26	38	-1	-1	-1	-1	17	-1	-1	-1	37	-1	32	49	-1	-1	25	-1	5	15	36	2	11	-1	14	-1
-1	31	-1	-1	-1	-1	-1	-1	33	-1	-1	12	-1	-1	-1	6	19	-1	-1	26	47	-1	-1	20	23	-1	-1	-1	-1	-1	27	8	-1	-1	-1	-1	-1	-1	42	-1	11	24	-1	-1	-1	18	44	29	32
-1	43	30	-1	24	28	-1	-1	-1	23	-1	-1	-1	-1	42	-1	-1	-1	-1	-1	37	-1	-1	-1	48	-1	22	-1	-1	-1	-1	-1	-1	-1	40	41	-1	-1	17	20	-1	-1	3	-1	-1	-1	-1	-1	-1
-1	14	-1	-1	-1	23	-1	-1	18	26	-1	17	6	-1	-1	-1	29	24	10	43	-1	-1	-1	-1	-1	34	-1	9	-1	13	25	-1	-1	-1	-1	-1	-1	33	-1	-1	-1	30	16	38	-1	-1	-1	42	-1
29	-1	-1	46	37	49	32	14	-1	-1	40	42	-1	-1	-1	-1	35	41	-1	-1	21	-1	-1	-1	-1	-1	-1	45	-1	3	15	-1	-1	-1	6	23	-1	-1	4	43	-1	-1	-1	-1	-1	-1	33	-1	-1
-1	13	-1	6	-1	16	-1	-1	-1	-1	-1	19	-1	-1	4	-1	-1	-1	8	-1	1	-1	-1	-1	-1	42	39	-1	32	-1	-1	23	33	38	-1	35	-1	48	26	27	46	-1	-1	43	9	30	-1	34	-1
-1	-1	-1	11	47	-1	-1	35	36	-1	-1	38	16	49	30	-1	14	27	23	2	32	7	-1	-1	-1	-1	-1	-1	-1	-1	10	20	42	24	31	-1	-1	13	29	3	22	-1	-1	-1	-1	-1	-1	40	-1
-1	-1	-1	28	31	24	4	36	26	6	-1	39	-1	32	-1	-1	-1	-1	46	-1	44	-1	14	-1	-1	-1	-1	-1	-1	48	23	-1	-1	27	33	-1	29	-1	-1	-1	-1	-1	19	21	38	35	-1	20	-1
-1	-1	-1	-1	-1	17	-1	-1	8	-1	-1	46	35	22	-1	-1	-1	-1	-1	-1	-1	-1	10	42	11	-1	-1	-1	3	-1	32	-1	39	13	-1	9	41	-1	38	-1	-1	20	-1	-1	-1	26	7	36	1
49	41	25	19	-1	-1	-1	-1	-1	30	-1	-1	12	-1	20	13	-1	-1	-1	-1	-1	-1	4	-1	-1	15	-1	-1	-1	44	-1	-1	-1	-1	11	22	36	-1	-1	14	33	-1	-1	-1	-1	-1	45	39	18
-1	30	-1	-1	-1	-1	-1	-1	-1	47	7	-1	4	-1	29	-1	33	48	-1	-1	-1	-1	-1	-1	-1	38	-1	8	-1	19	35	-1	-1	31	-1	40	-1	-1	-1	-1	-1	45	25	12	28	-1	-1	-1	-1
13	15	-1	26	-1	7	-1	-1	38	9	-1	-1	-1	-1	-1	-1	22	-1	-1	-1	12	-1	-1	-1	21	-1	41	-1	30	29	45	42	-1	-1	-1	-1	16	-1	32	-1	-1	-1	47	33	-1	-1	2	-1	31
-1	-1	-1	-1	-1	-1	27	13	-1	-1	31	-1	-1	-1	-1	-1	-1	35	18	-1	-1	-1	16	-1	-1	-1	29	-1	8	-1	4	12	-1	-1	10	21	-1	-1	28	-1	-1	39	-1	5	-1	-1	-1	22	-1
-1	-1	1	-1	-1	-1	-1	-1	-1	28	33	-1	41	-1	3	40	-1	-1	16	4	10	26	43	-1	25	-1	-1	47	-1	-1	-1	-1	-1	-1	-1	-1	-1	30	27	-1	-1	18	29	-1	14	17	-1	-1	-1
-1	-1	-1	-1	-1	8	-1	27	-1	-1	-1	49	48	-1	40	31	-1	-1	1	35	38	44	-1	-1	-1	-1	-1	-1	46	-1	37	22	-1	-1	7	-1	-1	-1	-1	-1	32	-1	4	-1	17	-1	-1	-1	-1
-1	-1	23	20	-1	18	-1	-1	-1	42	-1	4	-1	21	-1	32	47	-1	30	-1	-1	-1	15	43	-1	-1	25	5	-1	1	-1	48	-1	44	-1	31	-1	27	8	41	-1	-1	-1	-1	-1	-1	39	-1	46
27	-1	-1	-1	-1	-1	6	11	13	-1	-1	-1	47	-1	48	17	-1	42	26	-1	19	-1	-1	41	32	-1	8	-1	-1	-1	16	35	-1	-1	-1	-1	-1	-1	-1	33	-1	-1	-1	1	20	-1	-1	-1	38
-1	25	-1	-1	-1	-1	10	-1	-1	-1	-1	-1	-1	-1	-1	29	-1	-1	2	-1	27	-1	-1	-1	-1	17	-1	3	13	-1	43	6	32	-1	42	20	-1	1	-1	-1	-1	15	-1	-1	21	14	-1	-1	-1
-1	26	-1	-1	-1	43	48	-1	-1	32	17	-1	-1	-1	23	-1	-1	-1	28	49	-1	38	47	-1	-1	-1	-1	18	-1	-1	5	-1	8	-1	-1	-1	-1	37	-1	-1	-1	36	-1	-1	22	-1	-1	25	34
-1	-1	31	-1	-1	-1	-1	7	12	40	43	8	-1	33	25	-1	4	-1	-1	-1	-1	42	2	21	-1	9	-1	-1	-1	-1	-1	-1	-1	-1	-1	17	-1	-1	-1	-1	49	-1	-1	-1	-1	19	13	-1	-1
17	-1	-1	-1	46	-1	-1	-1	-1	-1	-1	-1	1	16	12	-1	-1	43	22	41	-1	30	27	-1	-1	26	-1	-1	-1	39	38	-1	-1	29	-1	2	-1	21	18	-1	-1	6	42	31	8	49	48	-1	-1
23	27	-1	32	18	-1	-1	-1	46	-1	-1	-1	-1	8	-1	-1	-1	-1	37	7	-1	-1	-1	13	24	-1	4	25	-1	10	29	19	43	-1	-1	-1	-1	-1	-1	9	-1	-1	-1	28	16	-1	-1	-1	47
-1	29	28	-1	-1	33	-1	40	23	34	-1	3	43	-1	-1	-1	-1	-1	24	-1	9	11	-1	14	36	22	-1	-1	-1	35	12	-1	-1	-1	-1	-1	-1	-1	-1	-1	-1	-1	-1	-1	-1	-1	-1	37	-1
35	-1	-1	-1	-1	3	26	18	-1	1	-1	-1	32	-1	5	-1	-1	33	-1	-1	-1	-1	-1	-1	-1	-1	-1	-1	-1	-1	-1	44	31	25	-1	30	-1	42	40	-1	-1	-1	-1	11	29	21	-1	-1	27
-1	-1	-1	49	36	2	-1	-1	-1	-1	20	-1	11	42	-1	27	-1	-1	44	3	-1	41	-1	-1	-1	-1	-1	-1	24	-1	-1	-1	-1	18	48	15	4	-1	-1	-1	-1	14	-1	-1	-1	32	-1	-1	-1
44	-1	16	-1	-1	46	-1	-1	-1	-1	-1	-1	26	24	43	-1	25	19	-1	-1	-1	5	-1	49	31	-1	47	-1	33	-1	-1	-1	-1	11	23	-1	35	2	-1	8	-1	1	39	-1	-1	-1	42	7	3
-1	42	20	-1	-1	-1	-1	-1	7	27	19	-1	-1	37	-1	-1	10	-1	29	23	40	16	3	35	-1	32	28	-1	17	-1	-1	-1	-1	-1	5	-1	47	43	-1	31	-1	-1	-1	14	-1	-1	-1	15	-1
-1	-1	-1	30	1	-1	-1	-1	45	31	49	-1	-1	36	34	4	16	11	15	42	-1	-1	6	46	-1	-1	-1	-1	-1	-1	2	-1	-1	-1	-1	-1	33	-1	-1	44	-1	-1	-1	18	-1	22	-1	26	-1
-1	-1	19	-1	42	31	38	-1	43	7	32	36	29	-1	-1	18	9	-1	-1	-1	22	-1	-1	39	-1	-1	-1	12	-1	-1	-1	-1	-1	-1	16	37	-1	35	20	17	-1	-1	-1	49	47	-1	-1	1	-1
30	-1	15	-1	-1	-1	3	-1	20	-1	5	-1	-1	39	-1	-1	-1	4	-1	-1	2	-1	22	-1	40	-1	42	27	-1	34	-1	-1	17	-1	18	10	-1	-1	-1	7	14	16	-1	-1	-1	8	-1	46	-1
-1	-1	43	-1	5	45	-1	-1	4	13	-1	-1	49	23	-1	-1	-1	1	11	46	-1	-1	-1	-1	-1	-1	35	-1	38	27	-1	-1	-1	39	20	-1	32	-1	-1	-1	-1	22	-1	-1	-1	25	-1	-1	-1
-1	-1	33	-1	-1	-1	-1	-1	11	-1	-1	-1	18	-1	-1	-1	42	36	-1	39	5	46	26	2	-1	48	-1	-1	15	-1	14	-1	10	30	22	-1	-1	-1	-1	-1	12	34	-1	-1	44	23	38	-1	-1
25	-1	-1	-1	34	-1	-1	-1	-1	22	-1	37	-1	-1	-1	-1	-1	-1	-1	-1	-1	43	9	30	-1	-1	15	-1	42	-1	-1	13	-1	41	-1	-1	19	24	11	23	2	44	-1	-1	27	-1	28	-1	-1
12	22	39	-1	-1	21	41	-1	-1	10	-1	24	-1	-1	-1	-1	32	-1	-1	33	-1	-1	-1	36	-1	-1	38	6	11	-1	19	-1	44	-1	-1	-1	-1	45	48	-1	-1	-1	-1	-1	5	34	-1	-1	2
-1	47	-1	-1	-1	-1	-1	-1	-1	-1	-1	34	-1	17	38	-1	12	-1	-1	-1	-1	3	-1	-1	-1	-1	-1	32	-1	7	-1	46	2	35	49	39	-1	-1	-1	-1	-1	31	-1	6	33	-1	9	-1	22
-1	-1	-1	-1	16	1	45	-1	48	-1	-1	-1	14	2	-1	-1	-1	-1	17	32	29	-1	-1	-1	-1	3	40	-1	-1	31	22	38	-1	43	-1	46	34	-1	15	30	42	-1	9	20	19	-1	47	-1	10
-1	-1	-1	-1	-1	36	-1	17	37	38	42	-1	-1	-1	26	-1	1	-1	-1	-1	33	-1	30	5	-1	-1	-1	20	7	-1	-1	11	35	-1	27	43	-1	-1	6	-1	-1	-1	22	-1	13	-1	-1	49	-1
-1	20	-1	-1	-1	22	-1	-1	-1	45	24	31	-1	-1	-1	9	-1	12	-1	38	-1	-1	-1	23	16	-1	14	-1	49	-1	3	-1	-1	17	13	-1	-1	-1	1	-1	35	21	-1	-1	-1	33	-1	18	36
42	-1	-1	-1	43	-1	19	-1	-1	-1	13	18	34	7	-1	-1	8	-1	36	28	6	45	-1	-1	-1	-1	-1	-1	12	-1	33	41	-1	1	-1	-1	-1	4	-1	2	-1	-1	23	-1	26	-1	-1	-1	29
-1	-1	-1	15	-1	25	-1	22	-1	-1	-1	-1	-1	-1	-1	-1	27	-1	-1	-1	-1	-1	24	1	44	-1	31	17	-1	42	-1	-1	-1	23	-1	-1	-1	36	10	29	9	40	14	-1	-1	-1	-1	38	6
40	34	-1	-1	38	-1	-1	-1	28	-1	36	-1	8	1	-1	-1	44	-1	-1	21	-1	39	33	22	-1	43	48	-1	-1	-1	26	14	-1	6	2	12	-1	-1	31	-1	-1	-1	35	45	-1	16	41	-1	11
2	-1	49	9	-1	-1	-1	47	-1	-1	-1	-1	-1	-1	-1	23	-1	-1	4	40	-1	36	38	-1	42	25	-1	11	44	-1	21	5	-1	-1	-1	-1	-1	19	41	22	-1	-1	-1	-1	3	1	-1	30	8
43	-1	-1	12	-1	-1	-1	-1	-1	-1	-1	47	-1	-1	-1	-1	45	29	48	-1	14	-1	49	-1	-1	-1	7	-1	31	-1	-1	-1	-1	40	32	24	-1	17	-1	-1	20	19	27	-1	-1	-1	-1	11	-1
-1	-1	-1	-1	-1	-1	-1	-1	32	11	-1	-1	-1	29	-1	-1	-1	-1	41	36	-1	-1	-1	33	-1	37	-1	26	-1	-1	-1	-1	9	22	14	13	-1	-1	34	-1	48	-1	-1	-1	-1	-1	-1	31	30
-1	-1	-1	-1	-1	47	-1	-1	22	-1	21	-1	23	13	-1	-1	-1	-1	-1	-1	25	-1	-1	-1	-1	-1	-1	48	27	-1	-1	-1	-1	10	-1	-1	-1	40	-1	-1	15	-1	38	-1	-1	-1	35	6	19
-1	46	22	-1	13	30	31	2	42	49	-1	-1	-1	-1	28	-1	-1	26	-1	-1	17	-1	34	45	-1	-1	5	-1	-1	20	-1	-1	48	-1	-1	-1	6	12	-1	-1	-1	4	33	47	-1	-1	29	21	-1
-1	-1	5	-1	-1	-1	8	-1	-1	-1	25	-1	40	-1	-1	-1	-1	37	-1	-1	-1	-1	-1	11	14	-1	-1	-1	19	41	-1	18	6	-1	47	-1	-1	-1	-1	39	-1	43	46	-1	45	9	-1	-1	-1
4	-1	27	-1	-1	35	-1	-1	-1	-1	-1	45	9	20	-1	-1	38	22	-1	-1	7	8	13	-1	39	-1	6	-1	-1	-1	49	36	-1	-1	24	3	-1	29	14	1	41	42	-1	-1	-1	-1	-1	-1	-1
-1	32	18	-1	-1	6	1	-1	-1	-1	-1	43	-1	41	13	-1	-1	-1	5	-1	-1	-1	-1	27	-1	44	20	-1	-1	-1	-1	15	-1	-1	-1	11	28	31	-1	-1	-1	-1	-1	-1	40	3	-1	-1	49
49 
32 4 3 11
19 34 10 17
20 34 40 21
29 41 3 46
43 46 2 23
11 25 30 17
8 24 2 43
45 18 44 44
19 5 31 32
43 13 41 3
46 1 14 12
15 37 45 23
21 3 43 44
45 3 15 1
47 15 39 24
42 21 19 24
2 15 5 49
41 41 27 25
4 39 28 41
20 13 47 19
43 37 23 34
1 12 16 37
48 33 25 45
21 17 1 9
25 10 39 47
22 16 31 47
26 41 9 27
25 21 45 25
42 10 38 33
39 8 29 14
10 28 30 31
11 27 21 6
47 39 7 25
48 11 7 36
32 48 18 22
49 43 14 33
11 47 17 6
13 2 47 1
43 2 40 32
29 32 13 33
40 10 6 8
41 19 43 31
2 35 17 37
14 41 30 15
22 29 24 5
43 26 33 8
6 11 21 48
47 2 26 45
18 25 32 39
